1133
1   1   0    96   0 97 57 41 23 67 58 0
1   2   0    83   0 5 98 37 92 59 99 0
1   3   0    100  0 61 38 14 42 87 95 0
1   4   0    97   0 84 17 45 46 36 49 47 8 0
2   1   0    92   0 77 76 50 28 26 12 0
2   2   0    39   0 55 4 54 0
2   3   0    98   0 34 35 65 66 71 9 0
2   4   0    94   0 79 81 78 68 80 0
3   1   0    96   0 2 22 75 74 72 21 73 0
3   2   0    99   0 56 39 25 24 29 3 33 51 1 0
3   3   0    95   0 15 43 100 85 93 0
3   4   0    94   0 89 7 48 82 83 96 0
4   1   0    97   0 88 19 11 64 63 90 32 20 70 0
4   2   0    100  0 6 91 44 86 16 60 18 52 0
4   3   0    95   0 69 27 53 40 13 94 0
4   4   0    83   0 30 10 62 31 0